g3 1 1 0	# problem discs
 33 66 1 0 18	# vars, constraints, objectives, ranges, eqns
 66 0	# nonlinear constraints, objectives
 0 0	# network constraints: nonlinear, linear
 33 0 0	# nonlinear vars in constraints, objectives, both
 0 0 0 1	# linear network variables; functions; arith, flags
 0 0 0 0 0	# discrete variables: binary, integer, nonlinear (b,c,o)
 363 12	# nonzeros in Jacobian, gradients
 0 0	# max name lengths: constraints, variables
 0 0 0 0 0	# common exprs: b,c,o,c1,o1
b
3
3
3
3
3
3
3
3
3
3
3
3
3
3
3
3
3
3
3
3
3
2 1
2 1
2 1
2 1
2 1
2 1
2 1
2 1
2 1
2 1
2 1
2 1
x33
0 0.06
1 0.09
2 0.12
3 0.15
4 0.18
5 0.21
6 0.24
7 0.27
8 0.3
9 0.32999999999999996
10 0.36
11 0.0166665
12 0.022222
13 0.027777499999999997
14 0.033333
15 0.0388885
16 0.044444
17 0.049999499999999995
18 0.05555499999999999
19 0.0611105
20 0.066666
21 1
22 2
23 3
24 4
25 5
26 6
27 7
28 8
29 9
30 10
31 11
32 12
r
4 0
4 0
4 0
4 0
4 0
4 0
4 0
4 0
4 0
4 0
4 0
4 0
4 0
4 0
4 0
4 0
4 0
4 0
1 -0.0001
1 -0.0001
1 -0.0001
1 -0.0001
1 -0.0001
1 -0.0001
1 -0.0001
1 -0.0001
1 -0.0001
1 -0.0001
1 -0.0001
1 -0.0001
1 -0.0001
1 -0.0001
1 -0.0001
1 -0.0001
1 -0.0001
1 -0.0001
1 -0.0001
1 -0.0001
1 -0.0001
1 -0.0001
1 -0.0001
1 -0.0001
1 -0.0001
1 -0.0001
1 -0.0001
1 -0.0001
1 -0.0001
1 -0.0001
1 -0.0001
1 -0.0001
1 -0.0001
1 -0.0001
1 -0.0001
1 -0.0001
1 -0.0001
1 -0.0001
1 -0.0001
1 -0.0001
1 -0.0001
1 -0.0001
1 -0.0001
1 -0.0001
1 -0.0001
1 -0.0001
1 -0.0001
1 -0.0001
C0
o1
o5
o0
v22
v21
n2
o5
v0
n2
C1
o54
3
o5
o0
v23
v22
n2
o16
o5
o1
v1
v0
n2
o16
o5
v11
n2
C2
o54
3
o5
o0
v24
v22
n2
o16
o5
o1
v2
v0
n2
o16
o5
v12
n2
C3
o54
3
o5
o0
v24
v23
n2
o16
o5
o1
v2
v1
n2
o16
o5
o1
v12
v11
n2
C4
o54
3
o5
o0
v25
v24
n2
o16
o5
o1
v3
v2
n2
o16
o5
o1
v13
v12
n2
C5
o54
3
o5
o0
v26
v24
n2
o16
o5
o1
v4
v2
n2
o16
o5
o1
v14
v12
n2
C6
o54
3
o5
o0
v26
v25
n2
o16
o5
o1
v4
v3
n2
o16
o5
o1
v14
v13
n2
C7
o54
3
o5
o0
v27
v21
n2
o16
o5
v5
n2
o16
o5
v15
n2
C8
o54
3
o5
o0
v27
v26
n2
o16
o5
o1
v5
v4
n2
o16
o5
o1
v15
v14
n2
C9
o54
3
o5
o0
v28
v27
n2
o16
o5
o1
v6
v5
n2
o16
o5
o1
v16
v15
n2
C10
o54
3
o5
o0
v29
v27
n2
o16
o5
o1
v7
v5
n2
o16
o5
o1
v17
v15
n2
C11
o54
3
o5
o0
v29
v28
n2
o16
o5
o1
v7
v6
n2
o16
o5
o1
v17
v16
n2
C12
o54
3
o5
o0
v30
v28
n2
o16
o5
o1
v8
v6
n2
o16
o5
o1
v18
v16
n2
C13
o54
3
o5
o0
v30
v29
n2
o16
o5
o1
v8
v7
n2
o16
o5
o1
v18
v17
n2
C14
o54
3
o5
o0
v31
v25
n2
o16
o5
o1
v9
v3
n2
o16
o5
o1
v19
v13
n2
C15
o54
3
o5
o0
v31
v30
n2
o16
o5
o1
v9
v8
n2
o16
o5
o1
v19
v18
n2
C16
o54
3
o5
o0
v32
v30
n2
o16
o5
o1
v10
v8
n2
o16
o5
o1
v20
v18
n2
C17
o54
3
o5
o0
v32
v31
n2
o16
o5
o1
v10
v9
n2
o16
o5
o1
v20
v19
n2
C18
o54
3
o5
o0
v23
v21
n2
o16
o5
v1
n2
o16
o5
v11
n2
C19
o54
3
o5
o0
v24
v21
n2
o16
o5
v2
n2
o16
o5
v12
n2
C20
o54
3
o5
o0
v25
v21
n2
o16
o5
v3
n2
o16
o5
v13
n2
C21
o54
3
o5
o0
v25
v22
n2
o16
o5
o1
v3
v0
n2
o16
o5
v13
n2
C22
o54
3
o5
o0
v25
v23
n2
o16
o5
o1
v3
v1
n2
o16
o5
o1
v13
v11
n2
C23
o54
3
o5
o0
v26
v21
n2
o16
o5
v4
n2
o16
o5
v14
n2
C24
o54
3
o5
o0
v26
v22
n2
o16
o5
o1
v4
v0
n2
o16
o5
v14
n2
C25
o54
3
o5
o0
v26
v23
n2
o16
o5
o1
v4
v1
n2
o16
o5
o1
v14
v11
n2
C26
o54
3
o5
o0
v27
v22
n2
o16
o5
o1
v5
v0
n2
o16
o5
v15
n2
C27
o54
3
o5
o0
v27
v23
n2
o16
o5
o1
v5
v1
n2
o16
o5
o1
v15
v11
n2
C28
o54
3
o5
o0
v27
v24
n2
o16
o5
o1
v5
v2
n2
o16
o5
o1
v15
v12
n2
C29
o54
3
o5
o0
v27
v25
n2
o16
o5
o1
v5
v3
n2
o16
o5
o1
v15
v13
n2
C30
o54
3
o5
o0
v28
v21
n2
o16
o5
v6
n2
o16
o5
v16
n2
C31
o54
3
o5
o0
v28
v22
n2
o16
o5
o1
v6
v0
n2
o16
o5
v16
n2
C32
o54
3
o5
o0
v28
v23
n2
o16
o5
o1
v6
v1
n2
o16
o5
o1
v16
v11
n2
C33
o54
3
o5
o0
v28
v24
n2
o16
o5
o1
v6
v2
n2
o16
o5
o1
v16
v12
n2
C34
o54
3
o5
o0
v28
v25
n2
o16
o5
o1
v6
v3
n2
o16
o5
o1
v16
v13
n2
C35
o54
3
o5
o0
v28
v26
n2
o16
o5
o1
v6
v4
n2
o16
o5
o1
v16
v14
n2
C36
o54
3
o5
o0
v29
v21
n2
o16
o5
v7
n2
o16
o5
v17
n2
C37
o54
3
o5
o0
v29
v22
n2
o16
o5
o1
v7
v0
n2
o16
o5
v17
n2
C38
o54
3
o5
o0
v29
v23
n2
o16
o5
o1
v7
v1
n2
o16
o5
o1
v17
v11
n2
C39
o54
3
o5
o0
v29
v24
n2
o16
o5
o1
v7
v2
n2
o16
o5
o1
v17
v12
n2
C40
o54
3
o5
o0
v29
v25
n2
o16
o5
o1
v7
v3
n2
o16
o5
o1
v17
v13
n2
C41
o54
3
o5
o0
v29
v26
n2
o16
o5
o1
v7
v4
n2
o16
o5
o1
v17
v14
n2
C42
o54
3
o5
o0
v30
v21
n2
o16
o5
v8
n2
o16
o5
v18
n2
C43
o54
3
o5
o0
v30
v22
n2
o16
o5
o1
v8
v0
n2
o16
o5
v18
n2
C44
o54
3
o5
o0
v30
v23
n2
o16
o5
o1
v8
v1
n2
o16
o5
o1
v18
v11
n2
C45
o54
3
o5
o0
v30
v24
n2
o16
o5
o1
v8
v2
n2
o16
o5
o1
v18
v12
n2
C46
o54
3
o5
o0
v30
v25
n2
o16
o5
o1
v8
v3
n2
o16
o5
o1
v18
v13
n2
C47
o54
3
o5
o0
v30
v26
n2
o16
o5
o1
v8
v4
n2
o16
o5
o1
v18
v14
n2
C48
o54
3
o5
o0
v30
v27
n2
o16
o5
o1
v8
v5
n2
o16
o5
o1
v18
v15
n2
C49
o54
3
o5
o0
v31
v21
n2
o16
o5
v9
n2
o16
o5
v19
n2
C50
o54
3
o5
o0
v31
v22
n2
o16
o5
o1
v9
v0
n2
o16
o5
v19
n2
C51
o54
3
o5
o0
v31
v23
n2
o16
o5
o1
v9
v1
n2
o16
o5
o1
v19
v11
n2
C52
o54
3
o5
o0
v31
v24
n2
o16
o5
o1
v9
v2
n2
o16
o5
o1
v19
v12
n2
C53
o54
3
o5
o0
v31
v26
n2
o16
o5
o1
v9
v4
n2
o16
o5
o1
v19
v14
n2
C54
o54
3
o5
o0
v31
v27
n2
o16
o5
o1
v9
v5
n2
o16
o5
o1
v19
v15
n2
C55
o54
3
o5
o0
v31
v28
n2
o16
o5
o1
v9
v6
n2
o16
o5
o1
v19
v16
n2
C56
o54
3
o5
o0
v31
v29
n2
o16
o5
o1
v9
v7
n2
o16
o5
o1
v19
v17
n2
C57
o54
3
o5
o0
v32
v21
n2
o16
o5
v10
n2
o16
o5
v20
n2
C58
o54
3
o5
o0
v32
v22
n2
o16
o5
o1
v10
v0
n2
o16
o5
v20
n2
C59
o54
3
o5
o0
v32
v23
n2
o16
o5
o1
v10
v1
n2
o16
o5
o1
v20
v11
n2
C60
o54
3
o5
o0
v32
v24
n2
o16
o5
o1
v10
v2
n2
o16
o5
o1
v20
v12
n2
C61
o54
3
o5
o0
v32
v25
n2
o16
o5
o1
v10
v3
n2
o16
o5
o1
v20
v13
n2
C62
o54
3
o5
o0
v32
v26
n2
o16
o5
o1
v10
v4
n2
o16
o5
o1
v20
v14
n2
C63
o54
3
o5
o0
v32
v27
n2
o16
o5
o1
v10
v5
n2
o16
o5
o1
v20
v15
n2
C64
o54
3
o5
o0
v32
v28
n2
o16
o5
o1
v10
v6
n2
o16
o5
o1
v20
v16
n2
C65
o54
3
o5
o0
v32
v29
n2
o16
o5
o1
v10
v7
n2
o16
o5
o1
v20
v17
n2
O0 0
n0
k32
11
22
33
44
55
66
77
88
99
110
121
132
143
154
165
176
187
198
209
220
231
242
253
264
275
286
297
308
319
330
341
352
J0 3
0 0
21 0
22 0
J1 5
0 0
1 0
11 0
22 0
23 0
J2 5
0 0
2 0
12 0
22 0
24 0
J3 6
1 0
2 0
11 0
12 0
23 0
24 0
J4 6
2 0
3 0
12 0
13 0
24 0
25 0
J5 6
2 0
4 0
12 0
14 0
24 0
26 0
J6 6
3 0
4 0
13 0
14 0
25 0
26 0
J7 4
5 0
15 0
21 0
27 0
J8 6
4 0
5 0
14 0
15 0
26 0
27 0
J9 6
5 0
6 0
15 0
16 0
27 0
28 0
J10 6
5 0
7 0
15 0
17 0
27 0
29 0
J11 6
6 0
7 0
16 0
17 0
28 0
29 0
J12 6
6 0
8 0
16 0
18 0
28 0
30 0
J13 6
7 0
8 0
17 0
18 0
29 0
30 0
J14 6
3 0
9 0
13 0
19 0
25 0
31 0
J15 6
8 0
9 0
18 0
19 0
30 0
31 0
J16 6
8 0
10 0
18 0
20 0
30 0
32 0
J17 6
9 0
10 0
19 0
20 0
31 0
32 0
J18 4
1 0
11 0
21 0
23 0
J19 4
2 0
12 0
21 0
24 0
J20 4
3 0
13 0
21 0
25 0
J21 5
0 0
3 0
13 0
22 0
25 0
J22 6
1 0
3 0
11 0
13 0
23 0
25 0
J23 4
4 0
14 0
21 0
26 0
J24 5
0 0
4 0
14 0
22 0
26 0
J25 6
1 0
4 0
11 0
14 0
23 0
26 0
J26 5
0 0
5 0
15 0
22 0
27 0
J27 6
1 0
5 0
11 0
15 0
23 0
27 0
J28 6
2 0
5 0
12 0
15 0
24 0
27 0
J29 6
3 0
5 0
13 0
15 0
25 0
27 0
J30 4
6 0
16 0
21 0
28 0
J31 5
0 0
6 0
16 0
22 0
28 0
J32 6
1 0
6 0
11 0
16 0
23 0
28 0
J33 6
2 0
6 0
12 0
16 0
24 0
28 0
J34 6
3 0
6 0
13 0
16 0
25 0
28 0
J35 6
4 0
6 0
14 0
16 0
26 0
28 0
J36 4
7 0
17 0
21 0
29 0
J37 5
0 0
7 0
17 0
22 0
29 0
J38 6
1 0
7 0
11 0
17 0
23 0
29 0
J39 6
2 0
7 0
12 0
17 0
24 0
29 0
J40 6
3 0
7 0
13 0
17 0
25 0
29 0
J41 6
4 0
7 0
14 0
17 0
26 0
29 0
J42 4
8 0
18 0
21 0
30 0
J43 5
0 0
8 0
18 0
22 0
30 0
J44 6
1 0
8 0
11 0
18 0
23 0
30 0
J45 6
2 0
8 0
12 0
18 0
24 0
30 0
J46 6
3 0
8 0
13 0
18 0
25 0
30 0
J47 6
4 0
8 0
14 0
18 0
26 0
30 0
J48 6
5 0
8 0
15 0
18 0
27 0
30 0
J49 4
9 0
19 0
21 0
31 0
J50 5
0 0
9 0
19 0
22 0
31 0
J51 6
1 0
9 0
11 0
19 0
23 0
31 0
J52 6
2 0
9 0
12 0
19 0
24 0
31 0
J53 6
4 0
9 0
14 0
19 0
26 0
31 0
J54 6
5 0
9 0
15 0
19 0
27 0
31 0
J55 6
6 0
9 0
16 0
19 0
28 0
31 0
J56 6
7 0
9 0
17 0
19 0
29 0
31 0
J57 4
10 0
20 0
21 0
32 0
J58 5
0 0
10 0
20 0
22 0
32 0
J59 6
1 0
10 0
11 0
20 0
23 0
32 0
J60 6
2 0
10 0
12 0
20 0
24 0
32 0
J61 6
3 0
10 0
13 0
20 0
25 0
32 0
J62 6
4 0
10 0
14 0
20 0
26 0
32 0
J63 6
5 0
10 0
15 0
20 0
27 0
32 0
J64 6
6 0
10 0
16 0
20 0
28 0
32 0
J65 6
7 0
10 0
17 0
20 0
29 0
32 0
G0 12
21 1
22 1
23 1
24 1
25 1
26 1
27 1
28 1
29 1
30 1
31 1
32 1
